 # Version information for this restart file 
 # current date 2022-06-15 08:39:00.410
 # current working dir /work/hpc/users/wnw36/MSU-DFT-Catalysis-School/6_MD/2_Metadynamics/4_metadynamics-QMMM
 # Program compiled at                              Mon May 23 16:32:41 CDT 2022
 # Program compiled on                             Orion-devel-1.HPC.MsState.Edu
 # Program compiled for                                  Linux-x86-64-intel-hpc2
 # Source code revision number                                       git:d8d7100
 &GLOBAL
   PRINT_LEVEL  LOW
   PROJECT_NAME MD_QMMM
   RUN_TYPE  MD
 &END GLOBAL
 &MOTION
   &MD
     ENSEMBLE  NPT_I
     STEPS  20000
     TIMESTEP     4.9999999999999989E-01
     STEP_START_VAL  40000
     TIME_START_VAL     2.0499999999995343E+04
     ECONS_START_VAL    -8.7572535116363497E+01
     TEMPERATURE     2.9800000000000000E+02
     &BAROSTAT
       PRESSURE     1.0000000000000000E+00
       TIMECON     9.9999999999999986E+01
       &VELOCITY
             9.5107398811670335E-08
       &END VELOCITY
       &MASS
             2.4537124633693066E+08
       &END MASS
       &THERMOSTAT
         TYPE  CSVR
         &CSVR
           TIMECON     9.6755373060191392E+00
           &THERMOSTAT_ENERGY
                 1.9612566964818465E-01
           &END THERMOSTAT_ENERGY
           &RNG_INIT
Wiener process for Thermostat # 1        1 F T F  -1.3200584850356550E-01         628570558.0         210765428.0        2138258246.0         967182477.0        3255810581.0        3074281882.0             12345.0             12345.0             12345.0             12345.0             12345.0             12345.0             12345.0             12345.0             12345.0             12345.0             12345.0             12345.0
           &END RNG_INIT
         &END CSVR
       &END THERMOSTAT
     &END BAROSTAT
     &THERMOSTAT
       TYPE  CSVR
       REGION  GLOBAL
       &CSVR
         TIMECON     9.9999999999999986E+01
         &THERMOSTAT_ENERGY
              -7.3624632643690724E+00
         &END THERMOSTAT_ENERGY
         &RNG_INIT
Wiener process for Thermostat # 1        1 F T F   1.0717270915092565E+00           4323462.0        2539277472.0        1070074292.0         270796306.0        3476228886.0        1881113886.0             12345.0             12345.0             12345.0             12345.0             12345.0             12345.0             12345.0             12345.0             12345.0             12345.0             12345.0             12345.0
         &END RNG_INIT
       &END CSVR
     &END THERMOSTAT
     &AVERAGES  T
       &RESTART_AVERAGES
         ITIMES_START  1
         AVECPU     2.4697491180300718E-01
         AVEHUGONIOT     0.0000000000000000E+00
         AVETEMP_BARO     3.5413951943195991E+02
         AVEPOT    -9.1423129751418955E+01
         AVEKIN     7.1516836883028621E+00
         AVETEMP     2.9695205767088612E+02
         AVEKIN_QM     4.1087712266123393E-02
         AVETEMP_QM     3.9316539012038407E+02
         AVEVOL     3.5030786440458382E+05
         AVECELL_A     7.0110016396754091E+01
         AVECELL_B     7.4625391924436116E+01
         AVECELL_C     6.6951952378083888E+01
         AVEALPHA     9.0000000000000000E+01
         AVEBETA     9.0000000000000000E+01
         AVEGAMMA     9.0000000000000000E+01
         AVE_ECONS    -1.9497373024058831E+02
         AVE_PRESS     9.1800740342591851E+00
         AVE_PXX     2.2490398899231362E+01
       &END RESTART_AVERAGES
     &END AVERAGES
   &END MD
   &FREE_ENERGY
     &METADYN
       NT_HILLS  100
       MIN_DISP    -1.0000000000000000E+00
       OLD_HILL_NUMBER  200
       OLD_HILL_STEP  41000
       WW     4.4999999999999999E-04
       DO_HILLS  T
       STEP_START_VAL  41000
       NHILLS_START_VAL  200
       &METAVAR
         SCALE     3.4999999999999998E-01
         COLVAR  1
       &END METAVAR
       &METAVAR
         SCALE     3.4999999999999998E-01
         COLVAR  2
       &END METAVAR
       &PRINT
         &COLVAR  SILENT
           COMMON_ITERATION_LEVELS  3
           &EACH
             MD  1
           &END EACH
         &END COLVAR
         &HILLS  SILENT
           COMMON_ITERATION_LEVELS  3
           &EACH
             MD  1
           &END EACH
         &END HILLS
       &END PRINT
       &SPAWNED_HILLS_POS
            -1.8079015932197535E+00   -3.5738485872195724E-01
            -1.8498789308808909E+00   -4.0267791590429164E-01
            -1.7659132663819719E+00   -6.6528759729305875E-01
            -1.8366629740525013E+00   -7.3504816675665552E-01
            -1.6917918518464603E+00   -7.9640421296960540E-01
            -1.7778334747994222E+00   -7.9945964683372495E-01
            -1.6735514521541290E+00   -6.0393782381731853E-01
            -1.1199877669881744E+00   -7.0710347788042327E-01
            -9.9465610954928252E-01   -6.9854606052092549E-01
            -1.3272589741585534E+00   -4.7412911929620805E-01
            -1.3096152740353091E+00   -4.9419262019625881E-01
            -1.4092694511640502E+00   -4.7529998704737858E-01
            -1.6581274162289219E+00   -1.3183773375010333E-01
            -2.0731331324017219E+00    6.5886768030622989E-03
            -1.9474443612351706E+00   -4.1868463814239476E-02
            -1.9884044782287447E+00   -7.9025171855732879E-02
            -2.1975441274151990E+00   -1.3225970960661471E-02
            -2.2799756521866357E+00    4.2458787726559415E-02
            -1.9346889798752045E+00    1.8431342331416545E-01
            -1.4038440347470669E+00    1.6698151467755906E-01
            -9.2868865423395164E-01   -8.9094461285526450E-02
            -9.6627015271894834E-01   -2.4568323089567912E-01
            -1.5035772548334307E+00   -2.9220152752600374E-02
            -1.5985932970746717E+00    9.9377236930763502E-02
            -1.5964785197573974E+00   -1.0072210964415264E-01
            -1.5331095008417606E+00   -6.4133636898418445E-02
            -1.4934240752289725E+00   -3.7597472978518454E-02
            -1.0273096221720834E+00   -8.1181600610193541E-02
            -1.2833168591440653E+00    4.7473409280542000E-02
            -1.1897701914889467E+00    9.0781037641704643E-02
            -1.2379146259344225E+00   -1.2719450810334365E-01
            -1.4704978415378491E+00   -2.2364435557165052E-03
            -1.7175160673540404E+00   -7.6292674177125250E-02
            -1.3643168555003058E+00   -2.1159693427887305E-01
            -1.2900341350240296E+00   -1.1619545250039209E-01
            -8.3698998053694140E-01   -1.6686576931203945E-01
            -1.1938120321664201E+00   -4.5310322095781436E-01
            -9.6931156857988299E-01   -7.0890893354896889E-01
            -1.7202993341314823E+00   -6.7966657210934045E-01
            -1.9882210919262207E+00   -5.0079015230801360E-01
            -2.2721339966373080E+00   -4.7217420271033461E-01
            -2.1247100361337061E+00   -2.4757166788674567E-01
            -2.3209766785975035E+00   -4.2485394959192035E-01
            -2.3990316324346850E+00   -4.8890676978078318E-01
            -2.3008591046071842E+00   -6.2939884490867826E-01
            -2.1938390940880481E+00   -6.8165545460522026E-01
            -2.2801820082685254E+00   -8.0604340213255909E-01
            -2.2473683767951798E+00   -7.1352093866005362E-01
            -2.1617212486052040E+00   -5.9355030533686204E-01
            -1.7929676018915188E+00   -6.9398759924786191E-01
            -1.3212147927760043E+00   -7.8063697068034799E-01
            -8.0299177613449046E-01   -8.2273982852746030E-01
            -5.3730883394189277E-01   -6.9674916564861189E-01
            -1.0240930611247450E+00   -5.6535966318858755E-01
            -1.2804667497811124E+00   -3.7612339716440601E-01
            -1.0101594766696280E+00   -2.8730401180143866E-01
            -9.7119390476279932E-01   -4.5789020346990128E-01
            -9.3143465374794232E-01   -4.7254887209908247E-01
            -5.5011330754030041E-01   -6.0358311290008260E-01
            -7.1083821426179838E-01   -8.8140504885120663E-01
            -1.4810525017218197E+00   -9.5200768422171222E-01
            -1.8899732042804089E+00   -1.0049340420767976E+00
            -1.5968654116085190E+00   -1.3102858540886473E+00
            -1.4386070681415504E+00   -1.2107084903167333E+00
            -1.6360650076202319E+00   -1.0594261869736101E+00
            -1.6506259060928414E+00   -1.1475867293860347E+00
            -1.7977390242948559E+00   -1.2241198902255519E+00
            -2.0631335737310792E+00   -1.4492343494315492E+00
            -2.2737725305431695E+00   -1.6175130074133222E+00
            -2.5631219834098147E+00   -1.6115214357845389E+00
            -2.3515997332114011E+00   -1.8064530237287499E+00
            -2.2992406603901827E+00   -1.9122439878286741E+00
            -2.5945350229884525E+00   -1.5924438830915051E+00
            -2.6509477339471914E+00   -1.3818804364904054E+00
            -2.7362012847250980E+00   -1.4611953078082252E+00
            -2.6757116461016039E+00   -1.2507857683452812E+00
            -2.1586765279770361E+00   -1.4581637445352271E+00
            -1.9524386142178400E+00   -1.4725922707615382E+00
            -2.0008997733974638E+00   -1.3013885362605606E+00
            -1.9659666705323389E+00   -1.4281280091075814E+00
            -2.1213019898167431E+00   -1.3357466504929789E+00
            -2.3933845989680549E+00   -1.4170024700300701E+00
            -2.3967950935538056E+00   -1.3459898249628850E+00
            -2.6372894107738603E+00   -1.4638653561017918E+00
            -2.7707747117618737E+00   -1.2060525379218916E+00
            -2.9579521339904886E+00   -1.1128480151450049E+00
            -2.6377857253654611E+00   -9.8638130774349975E-01
            -2.7769530617755436E+00   -9.9225253958354642E-01
            -2.8942428487570169E+00   -7.6814057944272929E-01
            -2.9411925876387386E+00   -8.3469609754445173E-01
            -2.7063322397615366E+00   -1.1627633439446754E+00
            -2.6935940038896433E+00   -1.1819569311413716E+00
            -2.7363167843121801E+00   -1.4187399728815535E+00
            -2.5053958520760489E+00   -1.2491314765824200E+00
            -2.3870287084290567E+00   -1.0074376639903448E+00
            -2.2784898762168950E+00   -1.0234920494098105E+00
            -2.1850631288069735E+00   -1.0782227990019919E+00
            -2.3178589289103684E+00   -1.0080778346613215E+00
            -2.5354859193456605E+00   -1.1703070400971001E+00
            -2.7179766078228340E+00   -1.3739557657285104E+00
            -2.5554849681155929E+00   -1.4467228617667161E+00
            -2.4804529122988015E+00   -1.5676371482762761E+00
            -2.2483274593440683E+00   -1.8964548717093521E+00
            -2.1499908051431476E+00   -1.6791627845835819E+00
            -2.7041037089728661E+00   -1.5920738864077748E+00
            -2.9124614930163943E+00   -1.6462276433570651E+00
            -2.7960932030936192E+00   -1.5791524785698812E+00
            -2.5874825091308367E+00   -1.6468886757869541E+00
            -2.4926974348180693E+00   -1.5383113437254679E+00
            -2.1656665629956251E+00   -1.3946571138325226E+00
            -1.5930621918749921E+00   -1.3811587115568500E+00
            -1.1986547784021013E+00   -1.4511694871165446E+00
            -1.0594717141392493E+00   -1.5146846344249525E+00
            -8.2419164663713218E-01   -1.5890079230460969E+00
            -1.0880567799166556E+00   -1.3094969570946660E+00
            -1.3062269578553014E+00   -1.1032123680382711E+00
            -1.0994447061838173E+00   -1.1258963772505695E+00
            -1.1822151571462882E+00   -1.1095280181683620E+00
            -8.3977517759637976E-01   -1.1902723571882916E+00
            -1.2502403911443025E+00   -9.8123427222378723E-01
            -1.4908098218874102E+00   -9.8021675363258964E-01
            -1.3227221745377165E+00   -1.1011322450261787E+00
            -1.5197349071776216E+00   -1.1614819874911291E+00
            -1.3572892081141390E+00   -1.1882825358410400E+00
            -9.4372638970332900E-01   -1.3338142614064736E+00
            -7.8687718954040520E-01   -1.3962689537032702E+00
            -5.9193653697082027E-01   -1.4223684793695384E+00
            -7.8572777057559051E-01   -1.1667863633323350E+00
            -6.6666763832097320E-01   -1.1918966549891366E+00
            -4.6562966354520086E-01   -1.2062501965787078E+00
            -1.1310778905215101E-01   -1.4705739302797838E+00
            -2.6413161738707913E-01   -1.4466580369302164E+00
            -3.6680729840907134E-01   -1.3687067285953844E+00
            -7.9529089478398873E-01   -9.9288739167184303E-01
            -1.2641915769607976E+00   -7.1467530437519144E-01
            -1.3376242228354158E+00   -7.6717461873556658E-01
            -1.2465008964135222E+00   -9.4962733546697109E-01
            -1.6042276468336922E+00   -8.8064502049871862E-01
            -1.7723110666364619E+00   -6.4007954374653764E-01
            -1.3517413553566939E+00   -9.6773750922181989E-01
            -1.4381056649198172E+00   -1.1722769921597092E+00
            -1.8948976737841576E+00   -9.4555499445721125E-01
            -2.0775358297331650E+00   -7.9102830991985229E-01
            -2.1295979296322685E+00   -9.2221849238410414E-01
            -1.8458175401500512E+00   -1.1806198839948365E+00
            -1.9190419702366626E+00   -1.1549050908810159E+00
            -2.2958297584035563E+00   -1.1415375932764391E+00
            -2.4667966523815039E+00   -1.0825351078786980E+00
            -2.0074308589772727E+00   -1.4027888918589042E+00
            -1.6172678593278533E+00   -1.5840337759576641E+00
            -1.9177899845789170E+00   -1.5882026043517499E+00
            -1.7291091937389638E+00   -1.8718855424107232E+00
            -1.7219691197459497E+00   -1.9982555946625098E+00
            -1.3536916018396141E+00   -2.2178209070528965E+00
            -1.5132578054207215E+00   -2.2603836651277334E+00
            -1.9771710159624263E+00   -2.1056297645121731E+00
            -1.9079842119807608E+00   -2.2642093592493211E+00
            -1.8259676367409838E+00   -2.3932955393132715E+00
            -1.7344564488602146E+00   -2.3067902008486953E+00
            -1.9895501518388983E+00   -2.1470980207508319E+00
            -1.9275180583607607E+00   -2.0235152847052404E+00
            -2.0418885566263043E+00   -2.1524635100735168E+00
            -2.2720676710004000E+00   -2.1431492534892413E+00
            -2.5101579481964791E+00   -2.2207665579447848E+00
            -2.3415465757005904E+00   -2.1762164680347951E+00
            -2.5211381209659294E+00   -1.8912998547888265E+00
            -2.6803928624329956E+00   -2.0456127503392736E+00
            -2.6524184434259723E+00   -2.1655897693002544E+00
            -2.8786306313048726E+00   -2.1307717665112023E+00
            -2.9859055181781287E+00   -2.0032154646881963E+00
            -3.0071984092963930E+00   -1.9530388995070780E+00
            -2.8755913699209259E+00   -1.9723396078337601E+00
             3.0728042919723255E+00   -1.8184927367309456E+00
             2.9779402727460611E+00   -1.8699183484017112E+00
             2.9203626886864034E+00   -2.0352254047764973E+00
             2.8160592003778580E+00   -1.9967527111788286E+00
             2.8926907561073638E+00   -2.1141242018383082E+00
             3.1210854538513435E+00   -1.7039137162804536E+00
            -3.0710904953067839E+00   -1.4947945708398720E+00
            -2.9686934366433562E+00   -1.1871989210379752E+00
            -3.0582219137078610E+00   -9.2159311058082949E-01
            -3.1196280781459365E+00   -7.6406771876588675E-01
            -2.9806122123113283E+00   -4.3228770189023180E-01
            -3.0288636006707321E+00   -4.8196472801134860E-01
            -2.5222024189519772E+00   -2.8905318034219357E-01
            -2.3127333951706106E+00   -4.2803851129917803E-01
            -2.5096408872390867E+00   -4.8658617861917719E-01
            -2.7497835249550491E+00   -1.3724414266505391E-01
            -3.0945318158923811E+00    2.3660181747004572E-02
            -3.1118849823917927E+00    2.2706935389999219E-01
            -2.6357885527966474E+00    3.0908889886552515E-01
            -2.3675149407174914E+00    3.1048147002150017E-01
            -2.3205710186610204E+00    3.9134970759562293E-01
            -2.4996077735552618E+00    4.8203812875601670E-01
            -2.7788597044753161E+00   -1.6376013924741528E-02
            -2.5200898212881739E+00   -1.3332905820823271E-01
            -2.3830880726598380E+00   -3.6505470324652833E-01
            -2.1206567281745166E+00   -2.9894796657697498E-01
            -2.4029105915204028E+00   -1.6154914283902144E-02
            -2.6624342634607174E+00    1.2708960440579631E-01
       &END SPAWNED_HILLS_POS
       &SPAWNED_HILLS_SCALE
             3.4999999999999998E-01    3.4999999999999998E-01
             3.4999999999999998E-01    3.4999999999999998E-01
             3.4999999999999998E-01    3.4999999999999998E-01
             3.4999999999999998E-01    3.4999999999999998E-01
             3.4999999999999998E-01    3.4999999999999998E-01
             3.4999999999999998E-01    3.4999999999999998E-01
             3.4999999999999998E-01    3.4999999999999998E-01
             3.4999999999999998E-01    3.4999999999999998E-01
             3.4999999999999998E-01    3.4999999999999998E-01
             3.4999999999999998E-01    3.4999999999999998E-01
             3.4999999999999998E-01    3.4999999999999998E-01
             3.4999999999999998E-01    3.4999999999999998E-01
             3.4999999999999998E-01    3.4999999999999998E-01
             3.4999999999999998E-01    3.4999999999999998E-01
             3.4999999999999998E-01    3.4999999999999998E-01
             3.4999999999999998E-01    3.4999999999999998E-01
             3.4999999999999998E-01    3.4999999999999998E-01
             3.4999999999999998E-01    3.4999999999999998E-01
             3.4999999999999998E-01    3.4999999999999998E-01
             3.4999999999999998E-01    3.4999999999999998E-01
             3.4999999999999998E-01    3.4999999999999998E-01
             3.4999999999999998E-01    3.4999999999999998E-01
             3.4999999999999998E-01    3.4999999999999998E-01
             3.4999999999999998E-01    3.4999999999999998E-01
             3.4999999999999998E-01    3.4999999999999998E-01
             3.4999999999999998E-01    3.4999999999999998E-01
             3.4999999999999998E-01    3.4999999999999998E-01
             3.4999999999999998E-01    3.4999999999999998E-01
             3.4999999999999998E-01    3.4999999999999998E-01
             3.4999999999999998E-01    3.4999999999999998E-01
             3.4999999999999998E-01    3.4999999999999998E-01
             3.4999999999999998E-01    3.4999999999999998E-01
             3.4999999999999998E-01    3.4999999999999998E-01
             3.4999999999999998E-01    3.4999999999999998E-01
             3.4999999999999998E-01    3.4999999999999998E-01
             3.4999999999999998E-01    3.4999999999999998E-01
             3.4999999999999998E-01    3.4999999999999998E-01
             3.4999999999999998E-01    3.4999999999999998E-01
             3.4999999999999998E-01    3.4999999999999998E-01
             3.4999999999999998E-01    3.4999999999999998E-01
             3.4999999999999998E-01    3.4999999999999998E-01
             3.4999999999999998E-01    3.4999999999999998E-01
             3.4999999999999998E-01    3.4999999999999998E-01
             3.4999999999999998E-01    3.4999999999999998E-01
             3.4999999999999998E-01    3.4999999999999998E-01
             3.4999999999999998E-01    3.4999999999999998E-01
             3.4999999999999998E-01    3.4999999999999998E-01
             3.4999999999999998E-01    3.4999999999999998E-01
             3.4999999999999998E-01    3.4999999999999998E-01
             3.4999999999999998E-01    3.4999999999999998E-01
             3.4999999999999998E-01    3.4999999999999998E-01
             3.4999999999999998E-01    3.4999999999999998E-01
             3.4999999999999998E-01    3.4999999999999998E-01
             3.4999999999999998E-01    3.4999999999999998E-01
             3.4999999999999998E-01    3.4999999999999998E-01
             3.4999999999999998E-01    3.4999999999999998E-01
             3.4999999999999998E-01    3.4999999999999998E-01
             3.4999999999999998E-01    3.4999999999999998E-01
             3.4999999999999998E-01    3.4999999999999998E-01
             3.4999999999999998E-01    3.4999999999999998E-01
             3.4999999999999998E-01    3.4999999999999998E-01
             3.4999999999999998E-01    3.4999999999999998E-01
             3.4999999999999998E-01    3.4999999999999998E-01
             3.4999999999999998E-01    3.4999999999999998E-01
             3.4999999999999998E-01    3.4999999999999998E-01
             3.4999999999999998E-01    3.4999999999999998E-01
             3.4999999999999998E-01    3.4999999999999998E-01
             3.4999999999999998E-01    3.4999999999999998E-01
             3.4999999999999998E-01    3.4999999999999998E-01
             3.4999999999999998E-01    3.4999999999999998E-01
             3.4999999999999998E-01    3.4999999999999998E-01
             3.4999999999999998E-01    3.4999999999999998E-01
             3.4999999999999998E-01    3.4999999999999998E-01
             3.4999999999999998E-01    3.4999999999999998E-01
             3.4999999999999998E-01    3.4999999999999998E-01
             3.4999999999999998E-01    3.4999999999999998E-01
             3.4999999999999998E-01    3.4999999999999998E-01
             3.4999999999999998E-01    3.4999999999999998E-01
             3.4999999999999998E-01    3.4999999999999998E-01
             3.4999999999999998E-01    3.4999999999999998E-01
             3.4999999999999998E-01    3.4999999999999998E-01
             3.4999999999999998E-01    3.4999999999999998E-01
             3.4999999999999998E-01    3.4999999999999998E-01
             3.4999999999999998E-01    3.4999999999999998E-01
             3.4999999999999998E-01    3.4999999999999998E-01
             3.4999999999999998E-01    3.4999999999999998E-01
             3.4999999999999998E-01    3.4999999999999998E-01
             3.4999999999999998E-01    3.4999999999999998E-01
             3.4999999999999998E-01    3.4999999999999998E-01
             3.4999999999999998E-01    3.4999999999999998E-01
             3.4999999999999998E-01    3.4999999999999998E-01
             3.4999999999999998E-01    3.4999999999999998E-01
             3.4999999999999998E-01    3.4999999999999998E-01
             3.4999999999999998E-01    3.4999999999999998E-01
             3.4999999999999998E-01    3.4999999999999998E-01
             3.4999999999999998E-01    3.4999999999999998E-01
             3.4999999999999998E-01    3.4999999999999998E-01
             3.4999999999999998E-01    3.4999999999999998E-01
             3.4999999999999998E-01    3.4999999999999998E-01
             3.4999999999999998E-01    3.4999999999999998E-01
             3.4999999999999998E-01    3.4999999999999998E-01
             3.4999999999999998E-01    3.4999999999999998E-01
             3.4999999999999998E-01    3.4999999999999998E-01
             3.4999999999999998E-01    3.4999999999999998E-01
             3.4999999999999998E-01    3.4999999999999998E-01
             3.4999999999999998E-01    3.4999999999999998E-01
             3.4999999999999998E-01    3.4999999999999998E-01
             3.4999999999999998E-01    3.4999999999999998E-01
             3.4999999999999998E-01    3.4999999999999998E-01
             3.4999999999999998E-01    3.4999999999999998E-01
             3.4999999999999998E-01    3.4999999999999998E-01
             3.4999999999999998E-01    3.4999999999999998E-01
             3.4999999999999998E-01    3.4999999999999998E-01
             3.4999999999999998E-01    3.4999999999999998E-01
             3.4999999999999998E-01    3.4999999999999998E-01
             3.4999999999999998E-01    3.4999999999999998E-01
             3.4999999999999998E-01    3.4999999999999998E-01
             3.4999999999999998E-01    3.4999999999999998E-01
             3.4999999999999998E-01    3.4999999999999998E-01
             3.4999999999999998E-01    3.4999999999999998E-01
             3.4999999999999998E-01    3.4999999999999998E-01
             3.4999999999999998E-01    3.4999999999999998E-01
             3.4999999999999998E-01    3.4999999999999998E-01
             3.4999999999999998E-01    3.4999999999999998E-01
             3.4999999999999998E-01    3.4999999999999998E-01
             3.4999999999999998E-01    3.4999999999999998E-01
             3.4999999999999998E-01    3.4999999999999998E-01
             3.4999999999999998E-01    3.4999999999999998E-01
             3.4999999999999998E-01    3.4999999999999998E-01
             3.4999999999999998E-01    3.4999999999999998E-01
             3.4999999999999998E-01    3.4999999999999998E-01
             3.4999999999999998E-01    3.4999999999999998E-01
             3.4999999999999998E-01    3.4999999999999998E-01
             3.4999999999999998E-01    3.4999999999999998E-01
             3.4999999999999998E-01    3.4999999999999998E-01
             3.4999999999999998E-01    3.4999999999999998E-01
             3.4999999999999998E-01    3.4999999999999998E-01
             3.4999999999999998E-01    3.4999999999999998E-01
             3.4999999999999998E-01    3.4999999999999998E-01
             3.4999999999999998E-01    3.4999999999999998E-01
             3.4999999999999998E-01    3.4999999999999998E-01
             3.4999999999999998E-01    3.4999999999999998E-01
             3.4999999999999998E-01    3.4999999999999998E-01
             3.4999999999999998E-01    3.4999999999999998E-01
             3.4999999999999998E-01    3.4999999999999998E-01
             3.4999999999999998E-01    3.4999999999999998E-01
             3.4999999999999998E-01    3.4999999999999998E-01
             3.4999999999999998E-01    3.4999999999999998E-01
             3.4999999999999998E-01    3.4999999999999998E-01
             3.4999999999999998E-01    3.4999999999999998E-01
             3.4999999999999998E-01    3.4999999999999998E-01
             3.4999999999999998E-01    3.4999999999999998E-01
             3.4999999999999998E-01    3.4999999999999998E-01
             3.4999999999999998E-01    3.4999999999999998E-01
             3.4999999999999998E-01    3.4999999999999998E-01
             3.4999999999999998E-01    3.4999999999999998E-01
             3.4999999999999998E-01    3.4999999999999998E-01
             3.4999999999999998E-01    3.4999999999999998E-01
             3.4999999999999998E-01    3.4999999999999998E-01
             3.4999999999999998E-01    3.4999999999999998E-01
             3.4999999999999998E-01    3.4999999999999998E-01
             3.4999999999999998E-01    3.4999999999999998E-01
             3.4999999999999998E-01    3.4999999999999998E-01
             3.4999999999999998E-01    3.4999999999999998E-01
             3.4999999999999998E-01    3.4999999999999998E-01
             3.4999999999999998E-01    3.4999999999999998E-01
             3.4999999999999998E-01    3.4999999999999998E-01
             3.4999999999999998E-01    3.4999999999999998E-01
             3.4999999999999998E-01    3.4999999999999998E-01
             3.4999999999999998E-01    3.4999999999999998E-01
             3.4999999999999998E-01    3.4999999999999998E-01
             3.4999999999999998E-01    3.4999999999999998E-01
             3.4999999999999998E-01    3.4999999999999998E-01
             3.4999999999999998E-01    3.4999999999999998E-01
             3.4999999999999998E-01    3.4999999999999998E-01
             3.4999999999999998E-01    3.4999999999999998E-01
             3.4999999999999998E-01    3.4999999999999998E-01
             3.4999999999999998E-01    3.4999999999999998E-01
             3.4999999999999998E-01    3.4999999999999998E-01
             3.4999999999999998E-01    3.4999999999999998E-01
             3.4999999999999998E-01    3.4999999999999998E-01
             3.4999999999999998E-01    3.4999999999999998E-01
             3.4999999999999998E-01    3.4999999999999998E-01
             3.4999999999999998E-01    3.4999999999999998E-01
             3.4999999999999998E-01    3.4999999999999998E-01
             3.4999999999999998E-01    3.4999999999999998E-01
             3.4999999999999998E-01    3.4999999999999998E-01
             3.4999999999999998E-01    3.4999999999999998E-01
             3.4999999999999998E-01    3.4999999999999998E-01
             3.4999999999999998E-01    3.4999999999999998E-01
             3.4999999999999998E-01    3.4999999999999998E-01
             3.4999999999999998E-01    3.4999999999999998E-01
             3.4999999999999998E-01    3.4999999999999998E-01
             3.4999999999999998E-01    3.4999999999999998E-01
             3.4999999999999998E-01    3.4999999999999998E-01
             3.4999999999999998E-01    3.4999999999999998E-01
             3.4999999999999998E-01    3.4999999999999998E-01
             3.4999999999999998E-01    3.4999999999999998E-01
             3.4999999999999998E-01    3.4999999999999998E-01
             3.4999999999999998E-01    3.4999999999999998E-01
       &END SPAWNED_HILLS_SCALE
       &SPAWNED_HILLS_HEIGHT
             4.4999999999999999E-04
             4.4999999999999999E-04
             4.4999999999999999E-04
             4.4999999999999999E-04
             4.4999999999999999E-04
             4.4999999999999999E-04
             4.4999999999999999E-04
             4.4999999999999999E-04
             4.4999999999999999E-04
             4.4999999999999999E-04
             4.4999999999999999E-04
             4.4999999999999999E-04
             4.4999999999999999E-04
             4.4999999999999999E-04
             4.4999999999999999E-04
             4.4999999999999999E-04
             4.4999999999999999E-04
             4.4999999999999999E-04
             4.4999999999999999E-04
             4.4999999999999999E-04
             4.4999999999999999E-04