&GLOBAL
  PROJECT Pt111-O2
  RUN_TYPE GEO_OPT 
  WALLTIME 00:30:00
  PRINT_LEVEL MEDIUM
&END GLOBAL
&FORCE_EVAL
  METHOD QS
  STRESS_TENSOR ANALYTICAL
  &DFT
    BASIS_SET_FILE_NAME BASIS_SET
    POTENTIAL_FILE_NAME GTH_POTENTIALS
    UKS .TRUE.
    &MGRID
      NGRIDS 4
      CUTOFF 340
      REL_CUTOFF 40
    &END MGRID
    &QS
      EPS_DEFAULT 1.0E-10
      METHOD GPW
    &END QS
    &SCF
      SCF_GUESS ATOMIC
      EPS_SCF 1.0E-5
      MAX_SCF 50
      &OUTER_SCF .TRUE.
        EPS_SCF 1.0E-5
        MAX_SCF 50
      &END OUTER_SCF
      &OT
        MINIMIZER DIIS
        PRECONDITIONER FULL_SINGLE_INVERSE
      &END OT
      &PRINT
      &END PRINT
    &END SCF
    &POISSON
      PERIODIC XYZ
      POISSON_SOLVER PERIODIC
    &END POISSON
    &XC
      &XC_FUNCTIONAL PADE
      &END XC_FUNCTIONAL
    &END XC
    &PRINT
      &HIRSHFELD OFF
          FILENAME charge
      &END HIRSHFELD
      &MULLIKEN OFF
          FILENAME charge
      &END MULLIKEN
      &E_DENSITY_CUBE OFF
      &END E_DENSITY_CUBE
    &END PRINT
  &END DFT
  &SUBSYS
    &CELL
      A 11.248004136876908 0.0 0.0 
      B 5.624002068438453 9.74105732440786 0.0 
      C 0.0 0.0 14.591978460010456
      PERIODIC XYZ
      &CELL_REF
        A 11.248004136876908 0.0 0.0 
        B 5.624002068438453 9.74105732440786 0.0 
        C 0.0 0.0 14.591978460010456
        PERIODIC XYZ
      &END CELL_REF
    &END CELL
    &COORD
    &END COORD 
    &KIND H
      BASIS_SET DZVP-GTH-PADE
      POTENTIAL GTH-PADE-q1
    &END KIND
    &KIND O
      BASIS_SET DZVP-GTH-PADE
      POTENTIAL GTH-PADE-q6
    &END KIND
    &KIND C
      BASIS_SET DZVP-GTH-PADE
      POTENTIAL GTH-PADE-q4
    &END KIND
    &KIND Ni
      BASIS_SET DZV-GTH-PADE-q10
      POTENTIAL GTH-PADE-q10 
    &END KIND 
    &KIND Pt
      BASIS_SET DZV-GTH-PADE
      POTENTIAL GTH-PADE-q18
    &END KIND
    &KIND Au
      BASIS_SET TZ-GTH
      POTENTIAL GTH-PADE-q11
    &END KIND
  &END SUBSYS
&END FORCE_EVAL

&MOTION

  &CONSTRAINT
      &FIXED_ATOMS
          COMPONENTS_TO_FIX XYZ
          LIST 1..16
      &END
  &END

  &GEO_OPT
    TYPE MINIMIZATION
    MAX_DR    3.0E-03
    MAX_FORCE 3.0E-03
    RMS_DR    3.0E-03
    RMS_FORCE 3.0E-03
    MAX_ITER 20000
    OPTIMIZER LBFGS
  &END GEO_OPT
  &BAND
    NPROC_REP 2
    BAND_TYPE CI-NEB
    NUMBER_OF_REPLICA 24
    K_SPRING 0.05
    &CONVERGENCE_CONTROL
      MAX_FORCE 0.0010
      RMS_FORCE 0.0050
    &END
    ROTATE_FRAMES TRUE
    ALIGN_FRAMES TRUE
    &CI_NEB
      NSTEPS_IT 5
    &END
    &OPTIMIZE_BAND
      OPT_TYPE DIIS
      OPTIMIZE_END_POINTS FALSE
      &DIIS
        MAX_STEPS 400
      &END
    &END

    &REPLICA
      COORD_FILE_NAME reactant.xyz
    &END
    &REPLICA
      COORD_FILE_NAME product.xyz
    &END
  &END BAND

  &PRINT
    &CELL
    &END
    &STRESS
    &END 
    &FORCES
    &END
    &TRAJECTORY
      FORMAT XYZ
      UNIT ANGSTROM
    &END
    &VELOCITIES
      FORMAT XMOL
    &END
  &END PRINT

&END MOTION

&VIBRATIONAL_ANALYSIS
  NPROC_REP 1
  DX 0.01
  FULLY_PERIODIC .TRUE.
  THERMOCHEMISTRY .TRUE.
  TC_TEMPERATURE [K] 300.0
  TC_PRESSURE [bar] 1.0
  &PRINT
    &MOLDEN_VIB
    &END
    &CARTESIAN_EIGS
    &END
    &PROGRAM_RUN_INFO
      &EACH
        REPLICA_EVAL 1
      &END
    &END
  &END
&END

