&GLOBAL
  PROJECT Pt111-O
  RUN_TYPE GEO_OPT 
  WALLTIME 00:30:00
  PRINT_LEVEL MEDIUM
&END GLOBAL
&FORCE_EVAL
  METHOD QS
  STRESS_TENSOR ANALYTICAL
  &DFT
    BASIS_SET_FILE_NAME BASIS_SET
    POTENTIAL_FILE_NAME GTH_POTENTIALS
    UKS .TRUE.
    &MGRID
      NGRIDS 4
      CUTOFF 340
      REL_CUTOFF 40
    &END MGRID
    &QS
      EPS_DEFAULT 1.0E-10
      METHOD GPW
    &END QS
    &SCF
      SCF_GUESS ATOMIC
      EPS_SCF 1.0E-5
      MAX_SCF 50
      &OUTER_SCF .TRUE.
        EPS_SCF 1.0E-5
        MAX_SCF 50
      &END OUTER_SCF
      &OT
        MINIMIZER DIIS
        PRECONDITIONER FULL_SINGLE_INVERSE
      &END OT
      &PRINT
      &END PRINT
    &END SCF
    &POISSON
      PERIODIC XYZ
      POISSON_SOLVER PERIODIC
    &END POISSON
    &XC
      &XC_FUNCTIONAL PADE
      &END XC_FUNCTIONAL
    &END XC
    &PRINT
      &HIRSHFELD OFF
          FILENAME charge
      &END HIRSHFELD
      &MULLIKEN OFF
          FILENAME charge
      &END MULLIKEN
      &E_DENSITY_CUBE OFF
      &END E_DENSITY_CUBE
    &END PRINT
  &END DFT
  &SUBSYS
    &CELL
      A 11.248004136876908 0.0 0.0 
      B 5.624002068438453 9.74105732440786 0.0 
      C 0.0 0.0 14.591978460010456
      PERIODIC XYZ
      &CELL_REF
        A 11.248004136876908 0.0 0.0 
        B 5.624002068438453 9.74105732440786 0.0 
        C 0.0 0.0 14.591978460010456
        PERIODIC XYZ
      &END CELL_REF
    &END CELL
    &COORD
Pt       0.00000000       0.00000000       5.00000000
Pt       1.40600052       2.43526433       5.00000000
Pt       2.81200103       0.00000000       5.00000000
Pt       4.21800155       2.43526433       5.00000000
Pt       2.81200103       4.87052866       5.00000000
Pt       4.21800155       7.30579299       5.00000000
Pt       5.62400207       4.87052866       5.00000000
Pt       7.03000259       7.30579299       5.00000000
Pt       5.62400207       0.00000000       5.00000000
Pt       7.03000259       2.43526433       5.00000000
Pt       8.43600310       0.00000000       5.00000000
Pt       9.84200362       2.43526433       5.00000000
Pt       8.43600310       4.87052866       5.00000000
Pt       9.84200362       7.30579299       5.00000000
Pt      11.24800414       4.87052866       5.00000000
Pt      12.65400465       7.30579299       5.00000000
Pt       5.62585412       3.24717566       7.35716191
Pt       4.21527587       0.81063551       7.34639651
Pt       2.81196557       3.24345185       7.34209346
Pt       8.43956433       8.11444051       7.35831629
Pt       7.01886197       5.69082624       7.29988591
Pt       5.62582844       8.12065204       7.31714800
Pt      11.24831576       3.24605836       7.36160420
Pt       9.84941973       0.80932338       7.31611891
Pt       8.43507111       3.24099154       7.29794812
Pt      14.05830421       8.11927922       7.31393236
Pt      12.66092158       5.67752047       7.31542348
Pt      11.24382842       8.12618118       7.31601147
Pt       1.40820019       0.81464578       7.34160383
Pt       4.21486594       5.68090487       7.31788822
Pt       7.02315836       0.80879459       7.31543778
Pt       9.84904978       5.69065298       7.29686336
Pt       2.81482090       1.61253896       9.68719708
Pt       4.18975818       4.04393774       9.66404715
Pt       5.60306684       1.59239626       9.66725365
Pt       6.96017911       4.01353065       9.55904078
Pt       5.58187535       6.51010825       9.61036662
Pt       7.02340649       8.95255284       9.66745744
Pt       8.43732489       6.57773963       9.55957657
Pt       9.85025545       8.95362660       9.66762616
Pt       8.43622697       1.56850357       9.60442401
Pt       9.91570122       4.00962745       9.55621706
Pt      11.26689217       1.59553427       9.66525244
Pt      12.68053707       4.04385929       9.65961871
Pt      11.29004745       6.51115049       9.60276319
Pt      12.66057695       8.91896087       9.62989299
Pt      14.06105945       6.49782714       9.63365643
Pt      15.45790993       8.91822463       9.63080787
H        8.43500000       3.24100000      10.75100000
    &END COORD 
    &KIND H
      BASIS_SET DZVP-GTH-PADE
      POTENTIAL GTH-PADE-q1
    &END KIND
    &KIND O
      BASIS_SET DZVP-GTH-PADE
      POTENTIAL GTH-PADE-q6
    &END KIND
    &KIND C
      BASIS_SET DZVP-GTH-PADE
      POTENTIAL GTH-PADE-q4
    &END KIND
    &KIND Ni
      BASIS_SET DZV-GTH-PADE-q10
      POTENTIAL GTH-PADE-q10 
    &END KIND 
    &KIND Pt
      BASIS_SET DZV-GTH-PADE
      POTENTIAL GTH-PADE-q18
    &END KIND
    &KIND Au
      BASIS_SET TZ-GTH
      POTENTIAL GTH-PADE-q11
    &END KIND
  &END SUBSYS
&END FORCE_EVAL

&MOTION

  &CONSTRAINT
      &FIXED_ATOMS
          COMPONENTS_TO_FIX XYZ
          LIST 1..16
      &END
  &END

  &GEO_OPT
    TYPE MINIMIZATION
    MAX_DR    3.0E-03
    MAX_FORCE 3.0E-03
    RMS_DR    3.0E-03
    RMS_FORCE 3.0E-03
    MAX_ITER 20000
    OPTIMIZER LBFGS
  &END GEO_OPT
  &BAND
    NPROC_REP 2
    BAND_TYPE CI-NEB
    NUMBER_OF_REPLICA 24
    K_SPRING 0.05
    &CONVERGENCE_CONTROL
      MAX_FORCE 0.0010
      RMS_FORCE 0.0050
    &END
    ROTATE_FRAMES TRUE
    ALIGN_FRAMES TRUE
    &CI_NEB
      NSTEPS_IT 5
    &END
    &OPTIMIZE_BAND
      OPT_TYPE DIIS
      OPTIMIZE_END_POINTS FALSE
      &DIIS
        MAX_STEPS 400
      &END
    &END

    &REPLICA
      COORD_FILE_NAME reactant.xyz
    &END
    &REPLICA
      COORD_FILE_NAME product.xyz
    &END
  &END BAND

  &PRINT
    &CELL
    &END
    &STRESS
    &END 
    &FORCES
    &END
    &TRAJECTORY
      FORMAT XYZ
      UNIT ANGSTROM
    &END
    &VELOCITIES
      FORMAT XMOL
    &END
  &END PRINT

&END MOTION

&VIBRATIONAL_ANALYSIS
  NPROC_REP 1
  DX 0.01
  FULLY_PERIODIC .TRUE.
  THERMOCHEMISTRY .TRUE.
  TC_TEMPERATURE [K] 300.0
  TC_PRESSURE [bar] 1.0
  &PRINT
    &MOLDEN_VIB
    &END
    &CARTESIAN_EIGS
    &END
    &PROGRAM_RUN_INFO
      &EACH
        REPLICA_EVAL 1
      &END
    &END
  &END
&END

