&GLOBAL
  PROJECT Diels-Alder
  RUN_TYPE BAND
  WALLTIME 47:58:00
  PRINT_LEVEL MEDIUM
&END GLOBAL
&FORCE_EVAL
  METHOD QS
  STRESS_TENSOR ANALYTICAL
  &DFT
    CHARGE 0
    MULTIPLICITY 1
    BASIS_SET_FILE_NAME BASIS_SET
    POTENTIAL_FILE_NAME GTH_POTENTIALS
    UKS .TRUE.
    &MGRID
      NGRIDS 4
      CUTOFF 340
      REL_CUTOFF 40
    &END MGRID
    &QS
      EPS_DEFAULT 1.0E-10
      METHOD GPW
    &END QS
    &SCF
      SCF_GUESS ATOMIC
      EPS_SCF 1.0E-5
      MAX_SCF 200
      ADDED_MOS 50
      &OUTER_SCF .TRUE.
        MAX_SCF 50
      &END OUTER_SCF
      &DIAGONALIZATION  ON
        ALGORITHM STANDARD
      &END DIAGONALIZATION
      &MIXING  T
        METHOD BROYDEN_MIXING
        ALPHA 0.4
        NBROYDEN 8
      &END MIXING
      &SMEAR ON
          METHOD FERMI_DIRAC
          ELECTRONIC_TEMPERATURE [K] 300
      &END SMEAR
      &PRINT
      &END PRINT
    &END SCF
    &POISSON
      PERIODIC NONE
      POISSON_SOLVER WAVELET
    &END POISSON
    &XC
      &XC_FUNCTIONAL PADE
      &END XC_FUNCTIONAL
    &END XC
    &PRINT
      &HIRSHFELD OFF
          FILENAME charge
      &END HIRSHFELD
      &MULLIKEN ON
          FILENAME charge
      &END MULLIKEN
      &E_DENSITY_CUBE OFF
      &END E_DENSITY_CUBE
    &END PRINT
  &END DFT
  &SUBSYS
    &CELL
      ABC 15.0 15.0 15.0
      &CELL_REF
        ABC 15.0 15.0 15.0
      &END CELL_REF
    &END CELL
    &COORD
  C         7.3629150000        6.8025800000        6.1148800000
  C         8.2334820097        7.7879118505        6.5113178957
  O         7.7379631168        8.4421429294        7.5939733998
  H         9.1891269845        8.1471716695        6.1280166441
  C         9.3792030766        6.0351017222        8.6188423547
  C         6.5584376089        7.8514733810        7.9308262290
  C         6.2741561796        6.8456748071        7.0348359464
  C         5.8161985998        8.4192308110        9.0794824339
  C         8.3462195928        6.0871051940        9.4785677268
  H         7.4955795001        6.1224053217        5.2717930157
  H         5.3859254853        6.2111438670        7.0590097755
  H         6.4999481717        8.6726936524        9.9088129137
  H         5.0827251906        7.6830341484        9.4472840536
  H         5.2642530375        9.3375835181        8.8036806732
  H         7.5523890468        5.3296113547        9.4720174461
  H         8.2656682135        6.8894294916       10.2247850819
  H        10.1726486230        6.7940130141        8.6326527437
  H         9.4684698855        5.2344390081        7.8741179792
    &END COORD 
    &KIND H
      BASIS_SET DZVP-GTH-PADE
      POTENTIAL GTH-PADE-q1
    &END KIND
    &KIND O
      BASIS_SET DZVP-GTH-PADE
      POTENTIAL GTH-PADE-q6
    &END KIND
    &KIND C
      BASIS_SET DZVP-GTH-PADE
      POTENTIAL GTH-PADE-q4
    &END KIND
  &END SUBSYS
&END FORCE_EVAL

&MOTION
    &BAND
    NPROC_REP 12
    BAND_TYPE CI-NEB
    NUMBER_OF_REPLICA 10
    K_SPRING 0.05
    &CONVERGENCE_CONTROL
      MAX_DR 0.0010
      RMS_DR 0.0050
      MAX_FORCE 0.0010
      RMS_FORCE 0.0050
    &END
    ROTATE_FRAMES TRUE
    ALIGN_FRAMES TRUE
    &CI_NEB
      NSTEPS_IT 5
    &END
    &OPTIMIZE_BAND
      OPT_TYPE DIIS
      OPTIMIZE_END_POINTS FALSE
      &DIIS
        MAX_STEPS 400
      &END
    &END
    &CONVERGENCE_INFO
    &END CONVERGENCE_INFO
 
    &REPLICA
      COORD_FILE_NAME reactant.xyz
    &END
    &REPLICA
      COORD_FILE_NAME transition-state.xyz
    &END
    &REPLICA
      COORD_FILE_NAME product.xyz
    &END
  &END BAND

  

  &PRINT
    &CELL
    &END
    &STRESS
    &END 
    &FORCES
    &END
    &TRAJECTORY
      FORMAT XYZ
      UNIT ANGSTROM
    &END
    &VELOCITIES
      FORMAT XMOL
    &END
  &END PRINT

&END MOTION
