&GLOBAL
  PROJECT Au111-O2
  RUN_TYPE GEO_OPT 
  WALLTIME 00:30:00
  PRINT_LEVEL MEDIUM
&END GLOBAL
&FORCE_EVAL
  METHOD QS
  STRESS_TENSOR ANALYTICAL
  &DFT
    BASIS_SET_FILE_NAME BASIS_SET
    POTENTIAL_FILE_NAME GTH_POTENTIALS
    UKS .TRUE.
    &MGRID
      NGRIDS 4
      CUTOFF 340
      REL_CUTOFF 40
    &END MGRID
    &QS
      EPS_DEFAULT 1.0E-10
      METHOD GPW
    &END QS
    &SCF
      SCF_GUESS ATOMIC
      EPS_SCF 1.0E-5
      MAX_SCF 50
      &OUTER_SCF .TRUE.
        MAX_SCF 50
      &END OUTER_SCF
      &OT
        MINIMIZER DIIS
        PRECONDITIONER FULL_SINGLE_INVERSE
      &END OT
      &PRINT
      &END PRINT
    &END SCF
    &POISSON
      PERIODIC XYZ
      POISSON_SOLVER PERIODIC
    &END POISSON
    &XC
      &XC_FUNCTIONAL PADE
      &END XC_FUNCTIONAL
    &END XC
    &PRINT
      &HIRSHFELD OFF
          FILENAME charge
      &END HIRSHFELD
      &MULLIKEN OFF
          FILENAME charge
      &END MULLIKEN
      &E_DENSITY_CUBE OFF
      &END E_DENSITY_CUBE
    &END PRINT
  &END DFT
  &SUBSYS
    &CELL
      A 8.190910827923425 0.0 0.0 
      B 3.7885445540599205 6.917818748758638 0.0 
      C 0.0 0.0 14.395059139985545
      PERIODIC XYZ
      &CELL_REF
        A 8.190910827923425 0.0 0.0 
        B 3.7885445540599205 6.917818748758638 0.0 
        C 0.0 0.0 14.395059139985545
        PERIODIC XYZ
      &END CELL_REF
    &END CELL
    &COORD
Au       2.73030361       0.00000000       5.00000000
Au       3.99315179       2.30593958       5.00000000
Au       5.25599998       4.61187917       5.00000000
Au       5.46060722       0.00000000       5.00000000
Au       6.72345540       2.30593958       5.00000000
Au       7.98630359       4.61187917       5.00000000
Au       8.19091083       0.00000000       5.00000000
Au       9.45375901       2.30593958       5.00000000
Au      10.71660720       4.61187917       5.00000000
Au       2.52554733       1.60714745       7.19752957
Au       3.78839552       3.91308704       7.19752957
Au       5.05124370       6.21902662       7.19752957
Au       5.25585094       1.60714745       7.19752957
Au       6.51869912       3.91308704       7.19752957
Au       7.78154731       6.21902662       7.19752957
Au       7.98615455       1.60714745       7.19752957
Au       9.24900273       3.91308704       7.19752957
Au      10.51185092       6.21902662       7.19752957
Au       1.05794287       0.90835533       9.39505914
Au       2.32079105       3.21429491       9.39505914
Au       3.58363924       5.52023449       9.39505914
Au       3.78824648       0.90835533       9.39505914
Au       5.05109466       3.21429491       9.39505914
Au       6.31394285       5.52023449       9.39505914
Au       6.51855009       0.90835533       9.39505914
Au       7.78139827       3.21429491       9.39505914
Au       9.04424646       5.52023449       9.39505914
O        5.67407266       3.21429491      11.19505914
O        4.42811666       3.21429491      11.19505914
    &END COORD 
    &KIND H
      BASIS_SET DZVP-GTH-PADE
      POTENTIAL GTH-PADE-q1
    &END KIND
    &KIND O
      BASIS_SET DZVP-GTH-PADE
      POTENTIAL GTH-PADE-q6
    &END KIND
    &KIND C
      BASIS_SET DZVP-GTH-PADE
      POTENTIAL GTH-PADE-q4
    &END KIND
    &KIND Ni
      BASIS_SET DZV-GTH-PADE-q10
      POTENTIAL GTH-PADE-q10 
    &END KIND 
    &KIND Pt
      BASIS_SET DZV-GTH-PADE
      POTENTIAL GTH-PADE-q18
    &END KIND
    &KIND Au
      BASIS_SET TZ-GTH
      POTENTIAL GTH-PADE-q11
    &END KIND
  &END SUBSYS
&END FORCE_EVAL

&MOTION

  &CONSTRAINT
      &FIXED_ATOMS
          COMPONENTS_TO_FIX XYZ
          LIST 1..9
      &END
  &END

  &GEO_OPT
    TYPE MINIMIZATION
    MAX_DR    3.0E-03
    MAX_FORCE 3.0E-03
    RMS_DR    3.0E-03
    RMS_FORCE 3.0E-03
    MAX_ITER 20000
    OPTIMIZER LBFGS
  &END GEO_OPT
  &BAND
    NPROC_REP 2
    BAND_TYPE CI-NEB
    NUMBER_OF_REPLICA 24
    K_SPRING 0.05
    &CONVERGENCE_CONTROL
      MAX_FORCE 0.0010
      RMS_FORCE 0.0050
    &END
    ROTATE_FRAMES TRUE
    ALIGN_FRAMES TRUE
    &CI_NEB
      NSTEPS_IT 5
    &END
    &OPTIMIZE_BAND
      OPT_TYPE DIIS
      OPTIMIZE_END_POINTS FALSE
      &DIIS
        MAX_STEPS 400
      &END
    &END

    &REPLICA
      COORD_FILE_NAME reactant.xyz
    &END
    &REPLICA
      COORD_FILE_NAME product.xyz
    &END
  &END BAND

  &PRINT
    &CELL
    &END
    &STRESS
    &END 
    &FORCES
    &END
    &TRAJECTORY
      FORMAT XYZ
      UNIT ANGSTROM
    &END
    &VELOCITIES
      FORMAT XMOL
    &END
  &END PRINT

&END MOTION

&VIBRATIONAL_ANALYSIS
  NPROC_REP 1
  DX 0.01
  FULLY_PERIODIC .TRUE.
  THERMOCHEMISTRY .TRUE.
  TC_TEMPERATURE [K] 300.0
  TC_PRESSURE [bar] 1.0
  &PRINT
    &MOLDEN_VIB
    &END
    &CARTESIAN_EIGS
    &END
    &PROGRAM_RUN_INFO
      &EACH
        REPLICA_EVAL 1
      &END
    &END
  &END
&END

